TYPE : Vertex Cover
DIMENSION: 27
EDGE_DATA_SECTION:
0 7
0 8
0 12
0 17
0 19
0 25
0 26
1 3
1 6
1 7
1 10
1 13
1 14
1 22
1 24
2 3
2 10
2 11
2 15
2 22
2 26
3 7
3 12
3 15
3 18
3 21
3 22
3 24
4 5
4 8
4 9
4 12
4 13
4 16
4 19
4 20
5 10
5 11
5 16
5 18
5 22
5 24
5 26
6 7
6 10
6 12
7 14
7 17
7 19
8 11
8 14
8 18
8 20
8 22
8 24
8 25
9 11
9 20
9 21
9 26
10 14
10 15
10 18
10 19
10 22
10 26
11 15
11 16
11 17
11 18
11 22
11 23
12 17
12 22
12 23
13 16
13 19
13 21
13 22
13 23
13 24
14 21
14 22
14 25
15 22
16 23
16 24
17 18
17 20
18 21
18 25
19 23
19 25
20 23
21 22
21 23
21 24
22 26
23 26
24 25
-1
VERTEX_DEGREE:
7.0 8.0 6.0 9.0 8.0 8.0 4.0 7.0 9.0 5.0 10.0 10.0 7.0 8.0 7.0 5.0 6.0 6.0 8.0 7.0 5.0 8.0 13.0 8.0 8.0 6.0 7.0
VERTEX_COVER:
0 2 3 4 5 6 7 8 9 10 11 13 14 17 18 19 22 23 24
EOF
